20191022 130500.00 117300.00
20191021 130452.93 117349.50
20171231 130500.00 116800.00
20170630 130452.93 116886.55
20170328 131501.73 123356.34
20161111 131501.73 60417.84
20160531 131844.93 61338.12
20150911 65922.46 25800.00
